91
84
88
7
75
78
73
94
45
81
83
8
57
19
61
42
47
23
56
64
31
4
70
41
30
93
50
26
27
97
34
5
37
44
43
1
99
3
89
82
87
15
40
11
95
96
62
59
68
77
65
39
21
98
72
32
90
49
9
69
53
0
58
33
80
29
36
14
28
85
48
74
10
67
17
60
79
6
51
2
24
54
46
63
66
22
12
52
13
18
76
35
38
92
25
20
55
71
16
86
